# 
# This file contains the parameter values of the Design Points successfully updated by Ansys Workbench.
# Project name: proj2a
# Creation date: 11/17/2021 12:48:25
# 
# 11/17/2021 12:48:25
# The parameters defined in the project are:
# ,P1 - rotor_thickness [mm],P2 - rotor_OD [mm],P3 - rotor_ID [mm],P4 - Equivalent Stress Maximum [Pa]
# 
# The following header line defines the name of the columns by reference to the parameters.
Name,P1,P2,P3,P4
DP 0,25,125,75,13442520.566477995
# 
# A non parametric change occurred and invalidated design point results.
# 11/17/2021 13:05:00
# 
# 
# A non parametric change occurred and invalidated design point results.
# 11/17/2021 13:28:43
# 
# 
# 11/17/2021 13:42:43
# Parameters have been added and/or removed. The parameters now defined in the project are:
# ,P7 - rotor_thickness [mm],P2 - rotor_OD [mm],P3 - rotor_ID [mm],P4 - Equivalent Stress Maximum [Pa],P5 - Total Deformation Reported Frequency [Hz],P6 - Temperature Maximum [C]
# 
# The following header line defines the name of the columns by reference to the parameters.
Name,P7,P2,P3,P4,P5,P6
DP 3,22.5,125,78,12501031.341056375,1524.3660463786034,349.03250122070313
DP 4,22.5,137.5,66,11067215.172693012,1320.9356063994976,352.15240478515625
DP 5,22.5,137.5,90,13935142.208053693,1179.475086393157,349.21722412109375
